c t wmc
c file mc2022_track2_169.cnf
p cnf 264 1474
1 0
13 14 0
25 26 27 0
37 38 39 40 0
49 50 51 52 53 0
61 62 63 64 65 66 0
73 74 75 76 77 78 79 0
85 86 87 88 89 90 91 92 0
97 98 99 100 101 102 103 104 105 0
109 110 111 112 113 114 115 116 117 118 0
121 122 123 124 125 126 127 128 129 130 131 0
133 134 135 136 137 138 139 140 141 142 143 144 0
145 146 147 148 149 150 151 152 153 154 155 156 0
157 158 159 160 161 162 163 164 165 166 167 168 0
169 170 171 172 173 174 175 176 177 178 179 180 0
181 182 183 184 185 186 187 188 189 190 191 192 0
193 194 195 196 197 198 199 200 201 202 203 204 0
205 206 207 208 209 210 211 212 213 214 215 216 0
217 218 219 220 221 222 223 224 225 226 227 228 0
229 230 231 232 233 234 235 236 237 238 239 240 0
241 242 243 244 245 246 247 248 249 250 251 252 0
253 254 255 256 257 258 259 260 261 262 263 264 0
-157 -193 0
-158 -194 0
-159 -195 0
-160 -196 0
-161 -197 0
-162 -198 0
-163 -199 0
-164 -200 0
-165 -201 0
-166 -202 0
-167 -203 0
-168 -204 0
-109 -193 0
-110 -194 0
-111 -195 0
-112 -196 0
-113 -197 0
-114 -198 0
-115 -199 0
-116 -200 0
-117 -201 0
-118 -202 0
-119 -203 0
-120 -204 0
-169 -229 0
-170 -230 0
-171 -231 0
-172 -232 0
-173 -233 0
-174 -234 0
-175 -235 0
-176 -236 0
-177 -237 0
-178 -238 0
-179 -239 0
-180 -240 0
-193 -229 0
-194 -230 0
-195 -231 0
-196 -232 0
-197 -233 0
-198 -234 0
-199 -235 0
-200 -236 0
-201 -237 0
-202 -238 0
-203 -239 0
-204 -240 0
-145 -193 0
-146 -194 0
-147 -195 0
-148 -196 0
-149 -197 0
-150 -198 0
-151 -199 0
-152 -200 0
-153 -201 0
-154 -202 0
-155 -203 0
-156 -204 0
-13 -253 0
-14 -254 0
-15 -255 0
-16 -256 0
-17 -257 0
-18 -258 0
-19 -259 0
-20 -260 0
-21 -261 0
-22 -262 0
-23 -263 0
-24 -264 0
-205 -217 0
-206 -218 0
-207 -219 0
-208 -220 0
-209 -221 0
-210 -222 0
-211 -223 0
-212 -224 0
-213 -225 0
-214 -226 0
-215 -227 0
-216 -228 0
-37 -217 0
-38 -218 0
-39 -219 0
-40 -220 0
-41 -221 0
-42 -222 0
-43 -223 0
-44 -224 0
-45 -225 0
-46 -226 0
-47 -227 0
-48 -228 0
-97 -241 0
-98 -242 0
-99 -243 0
-100 -244 0
-101 -245 0
-102 -246 0
-103 -247 0
-104 -248 0
-105 -249 0
-106 -250 0
-107 -251 0
-108 -252 0
-157 -205 0
-158 -206 0
-159 -207 0
-160 -208 0
-161 -209 0
-162 -210 0
-163 -211 0
-164 -212 0
-165 -213 0
-166 -214 0
-167 -215 0
-168 -216 0
-49 -205 0
-50 -206 0
-51 -207 0
-52 -208 0
-53 -209 0
-54 -210 0
-55 -211 0
-56 -212 0
-57 -213 0
-58 -214 0
-59 -215 0
-60 -216 0
-121 -253 0
-122 -254 0
-123 -255 0
-124 -256 0
-125 -257 0
-126 -258 0
-127 -259 0
-128 -260 0
-129 -261 0
-130 -262 0
-131 -263 0
-132 -264 0
-109 -205 0
-110 -206 0
-111 -207 0
-112 -208 0
-113 -209 0
-114 -210 0
-115 -211 0
-116 -212 0
-117 -213 0
-118 -214 0
-119 -215 0
-120 -216 0
-73 -217 0
-74 -218 0
-75 -219 0
-76 -220 0
-77 -221 0
-78 -222 0
-79 -223 0
-80 -224 0
-81 -225 0
-82 -226 0
-83 -227 0
-84 -228 0
-181 -253 0
-182 -254 0
-183 -255 0
-184 -256 0
-185 -257 0
-186 -258 0
-187 -259 0
-188 -260 0
-189 -261 0
-190 -262 0
-191 -263 0
-192 -264 0
-133 -193 0
-134 -194 0
-135 -195 0
-136 -196 0
-137 -197 0
-138 -198 0
-139 -199 0
-140 -200 0
-141 -201 0
-142 -202 0
-143 -203 0
-144 -204 0
-145 -229 0
-146 -230 0
-147 -231 0
-148 -232 0
-149 -233 0
-150 -234 0
-151 -235 0
-152 -236 0
-153 -237 0
-154 -238 0
-155 -239 0
-156 -240 0
-205 -229 0
-206 -230 0
-207 -231 0
-208 -232 0
-209 -233 0
-210 -234 0
-211 -235 0
-212 -236 0
-213 -237 0
-214 -238 0
-215 -239 0
-216 -240 0
-85 -169 0
-86 -170 0
-87 -171 0
-88 -172 0
-89 -173 0
-90 -174 0
-91 -175 0
-92 -176 0
-93 -177 0
-94 -178 0
-95 -179 0
-96 -180 0
-97 -157 0
-98 -158 0
-99 -159 0
-100 -160 0
-101 -161 0
-102 -162 0
-103 -163 0
-104 -164 0
-105 -165 0
-106 -166 0
-107 -167 0
-108 -168 0
-109 -145 0
-110 -146 0
-111 -147 0
-112 -148 0
-113 -149 0
-114 -150 0
-115 -151 0
-116 -152 0
-117 -153 0
-118 -154 0
-119 -155 0
-120 -156 0
-85 -241 0
-86 -242 0
-87 -243 0
-88 -244 0
-89 -245 0
-90 -246 0
-91 -247 0
-92 -248 0
-93 -249 0
-94 -250 0
-95 -251 0
-96 -252 0
-97 -181 0
-98 -182 0
-99 -183 0
-100 -184 0
-101 -185 0
-102 -186 0
-103 -187 0
-104 -188 0
-105 -189 0
-106 -190 0
-107 -191 0
-108 -192 0
-157 -169 0
-158 -170 0
-159 -171 0
-160 -172 0
-161 -173 0
-162 -174 0
-163 -175 0
-164 -176 0
-165 -177 0
-166 -178 0
-167 -179 0
-168 -180 0
-49 -241 0
-50 -242 0
-51 -243 0
-52 -244 0
-53 -245 0
-54 -246 0
-55 -247 0
-56 -248 0
-57 -249 0
-58 -250 0
-59 -251 0
-60 -252 0
-121 -241 0
-122 -242 0
-123 -243 0
-124 -244 0
-125 -245 0
-126 -246 0
-127 -247 0
-128 -248 0
-129 -249 0
-130 -250 0
-131 -251 0
-132 -252 0
-181 -217 0
-182 -218 0
-183 -219 0
-184 -220 0
-185 -221 0
-186 -222 0
-187 -223 0
-188 -224 0
-189 -225 0
-190 -226 0
-191 -227 0
-192 -228 0
-73 -253 0
-74 -254 0
-75 -255 0
-76 -256 0
-77 -257 0
-78 -258 0
-79 -259 0
-80 -260 0
-81 -261 0
-82 -262 0
-83 -263 0
-84 -264 0
-133 -253 0
-134 -254 0
-135 -255 0
-136 -256 0
-137 -257 0
-138 -258 0
-139 -259 0
-140 -260 0
-141 -261 0
-142 -262 0
-143 -263 0
-144 -264 0
-193 -205 0
-194 -206 0
-195 -207 0
-196 -208 0
-197 -209 0
-198 -210 0
-199 -211 0
-200 -212 0
-201 -213 0
-202 -214 0
-203 -215 0
-204 -216 0
-109 -157 0
-110 -158 0
-111 -159 0
-112 -160 0
-113 -161 0
-114 -162 0
-115 -163 0
-116 -164 0
-117 -165 0
-118 -166 0
-119 -167 0
-120 -168 0
-85 -205 0
-86 -206 0
-87 -207 0
-88 -208 0
-89 -209 0
-90 -210 0
-91 -211 0
-92 -212 0
-93 -213 0
-94 -214 0
-95 -215 0
-96 -216 0
-157 -241 0
-158 -242 0
-159 -243 0
-160 -244 0
-161 -245 0
-162 -246 0
-163 -247 0
-164 -248 0
-165 -249 0
-166 -250 0
-167 -251 0
-168 -252 0
-37 -241 0
-38 -242 0
-39 -243 0
-40 -244 0
-41 -245 0
-42 -246 0
-43 -247 0
-44 -248 0
-45 -249 0
-46 -250 0
-47 -251 0
-48 -252 0
-121 -169 0
-122 -170 0
-123 -171 0
-124 -172 0
-125 -173 0
-126 -174 0
-127 -175 0
-128 -176 0
-129 -177 0
-130 -178 0
-131 -179 0
-132 -180 0
-97 -217 0
-98 -218 0
-99 -219 0
-100 -220 0
-101 -221 0
-102 -222 0
-103 -223 0
-104 -224 0
-105 -225 0
-106 -226 0
-107 -227 0
-108 -228 0
-169 -181 0
-170 -182 0
-171 -183 0
-172 -184 0
-173 -185 0
-174 -186 0
-175 -187 0
-176 -188 0
-177 -189 0
-178 -190 0
-179 -191 0
-180 -192 0
-121 -181 0
-122 -182 0
-123 -183 0
-124 -184 0
-125 -185 0
-126 -186 0
-127 -187 0
-128 -188 0
-129 -189 0
-130 -190 0
-131 -191 0
-132 -192 0
-73 -241 0
-74 -242 0
-75 -243 0
-76 -244 0
-77 -245 0
-78 -246 0
-79 -247 0
-80 -248 0
-81 -249 0
-82 -250 0
-83 -251 0
-84 -252 0
-157 -253 0
-158 -254 0
-159 -255 0
-160 -256 0
-161 -257 0
-162 -258 0
-163 -259 0
-164 -260 0
-165 -261 0
-166 -262 0
-167 -263 0
-168 -264 0
-133 -145 0
-134 -146 0
-135 -147 0
-136 -148 0
-137 -149 0
-138 -150 0
-139 -151 0
-140 -152 0
-141 -153 0
-142 -154 0
-143 -155 0
-144 -156 0
-229 -241 0
-230 -242 0
-231 -243 0
-232 -244 0
-233 -245 0
-234 -246 0
-235 -247 0
-236 -248 0
-237 -249 0
-238 -250 0
-239 -251 0
-240 -252 0
-145 -181 0
-146 -182 0
-147 -183 0
-148 -184 0
-149 -185 0
-150 -186 0
-151 -187 0
-152 -188 0
-153 -189 0
-154 -190 0
-155 -191 0
-156 -192 0
-97 -229 0
-98 -230 0
-99 -231 0
-100 -232 0
-101 -233 0
-102 -234 0
-103 -235 0
-104 -236 0
-105 -237 0
-106 -238 0
-107 -239 0
-108 -240 0
-157 -217 0
-158 -218 0
-159 -219 0
-160 -220 0
-161 -221 0
-162 -222 0
-163 -223 0
-164 -224 0
-165 -225 0
-166 -226 0
-167 -227 0
-168 -228 0
-109 -217 0
-110 -218 0
-111 -219 0
-112 -220 0
-113 -221 0
-114 -222 0
-115 -223 0
-116 -224 0
-117 -225 0
-118 -226 0
-119 -227 0
-120 -228 0
-73 -205 0
-74 -206 0
-75 -207 0
-76 -208 0
-77 -209 0
-78 -210 0
-79 -211 0
-80 -212 0
-81 -213 0
-82 -214 0
-83 -215 0
-84 -216 0
-133 -205 0
-134 -206 0
-135 -207 0
-136 -208 0
-137 -209 0
-138 -210 0
-139 -211 0
-140 -212 0
-141 -213 0
-142 -214 0
-143 -215 0
-144 -216 0
-193 -253 0
-194 -254 0
-195 -255 0
-196 -256 0
-197 -257 0
-198 -258 0
-199 -259 0
-200 -260 0
-201 -261 0
-202 -262 0
-203 -263 0
-204 -264 0
-145 -217 0
-146 -218 0
-147 -219 0
-148 -220 0
-149 -221 0
-150 -222 0
-151 -223 0
-152 -224 0
-153 -225 0
-154 -226 0
-155 -227 0
-156 -228 0
-205 -241 0
-206 -242 0
-207 -243 0
-208 -244 0
-209 -245 0
-210 -246 0
-211 -247 0
-212 -248 0
-213 -249 0
-214 -250 0
-215 -251 0
-216 -252 0
-25 -253 0
-26 -254 0
-27 -255 0
-28 -256 0
-29 -257 0
-30 -258 0
-31 -259 0
-32 -260 0
-33 -261 0
-34 -262 0
-35 -263 0
-36 -264 0
-85 -253 0
-86 -254 0
-87 -255 0
-88 -256 0
-89 -257 0
-90 -258 0
-91 -259 0
-92 -260 0
-93 -261 0
-94 -262 0
-95 -263 0
-96 -264 0
-61 -229 0
-62 -230 0
-63 -231 0
-64 -232 0
-65 -233 0
-66 -234 0
-67 -235 0
-68 -236 0
-69 -237 0
-70 -238 0
-71 -239 0
-72 -240 0
-49 -229 0
-50 -230 0
-51 -231 0
-52 -232 0
-53 -233 0
-54 -234 0
-55 -235 0
-56 -236 0
-57 -237 0
-58 -238 0
-59 -239 0
-60 -240 0
-121 -229 0
-122 -230 0
-123 -231 0
-124 -232 0
-125 -233 0
-126 -234 0
-127 -235 0
-128 -236 0
-129 -237 0
-130 -238 0
-131 -239 0
-132 -240 0
-109 -229 0
-110 -230 0
-111 -231 0
-112 -232 0
-113 -233 0
-114 -234 0
-115 -235 0
-116 -236 0
-117 -237 0
-118 -238 0
-119 -239 0
-120 -240 0
-181 -229 0
-182 -230 0
-183 -231 0
-184 -232 0
-185 -233 0
-186 -234 0
-187 -235 0
-188 -236 0
-189 -237 0
-190 -238 0
-191 -239 0
-192 -240 0
-73 -193 0
-74 -194 0
-75 -195 0
-76 -196 0
-77 -197 0
-78 -198 0
-79 -199 0
-80 -200 0
-81 -201 0
-82 -202 0
-83 -203 0
-84 -204 0
-145 -253 0
-146 -254 0
-147 -255 0
-148 -256 0
-149 -257 0
-150 -258 0
-151 -259 0
-152 -260 0
-153 -261 0
-154 -262 0
-155 -263 0
-156 -264 0
-205 -253 0
-206 -254 0
-207 -255 0
-208 -256 0
-209 -257 0
-210 -258 0
-211 -259 0
-212 -260 0
-213 -261 0
-214 -262 0
-215 -263 0
-216 -264 0
-25 -241 0
-26 -242 0
-27 -243 0
-28 -244 0
-29 -245 0
-30 -246 0
-31 -247 0
-32 -248 0
-33 -249 0
-34 -250 0
-35 -251 0
-36 -252 0
-109 -169 0
-110 -170 0
-111 -171 0
-112 -172 0
-113 -173 0
-114 -174 0
-115 -175 0
-116 -176 0
-117 -177 0
-118 -178 0
-119 -179 0
-120 -180 0
-85 -217 0
-86 -218 0
-87 -219 0
-88 -220 0
-89 -221 0
-90 -222 0
-91 -223 0
-92 -224 0
-93 -225 0
-94 -226 0
-95 -227 0
-96 -228 0
-37 -253 0
-38 -254 0
-39 -255 0
-40 -256 0
-41 -257 0
-42 -258 0
-43 -259 0
-44 -260 0
-45 -261 0
-46 -262 0
-47 -263 0
-48 -264 0
-121 -157 0
-122 -158 0
-123 -159 0
-124 -160 0
-125 -161 0
-126 -162 0
-127 -163 0
-128 -164 0
-129 -165 0
-130 -166 0
-131 -167 0
-132 -168 0
-217 -253 0
-218 -254 0
-219 -255 0
-220 -256 0
-221 -257 0
-222 -258 0
-223 -259 0
-224 -260 0
-225 -261 0
-226 -262 0
-227 -263 0
-228 -264 0
-97 -205 0
-98 -206 0
-99 -207 0
-100 -208 0
-101 -209 0
-102 -210 0
-103 -211 0
-104 -212 0
-105 -213 0
-106 -214 0
-107 -215 0
-108 -216 0
-169 -217 0
-170 -218 0
-171 -219 0
-172 -220 0
-173 -221 0
-174 -222 0
-175 -223 0
-176 -224 0
-177 -225 0
-178 -226 0
-179 -227 0
-180 -228 0
-61 -193 0
-62 -194 0
-63 -195 0
-64 -196 0
-65 -197 0
-66 -198 0
-67 -199 0
-68 -200 0
-69 -201 0
-70 -202 0
-71 -203 0
-72 -204 0
-121 -217 0
-122 -218 0
-123 -219 0
-124 -220 0
-125 -221 0
-126 -222 0
-127 -223 0
-128 -224 0
-129 -225 0
-130 -226 0
-131 -227 0
-132 -228 0
-181 -193 0
-182 -194 0
-183 -195 0
-184 -196 0
-185 -197 0
-186 -198 0
-187 -199 0
-188 -200 0
-189 -201 0
-190 -202 0
-191 -203 0
-192 -204 0
-73 -229 0
-74 -230 0
-75 -231 0
-76 -232 0
-77 -233 0
-78 -234 0
-79 -235 0
-80 -236 0
-81 -237 0
-82 -238 0
-83 -239 0
-84 -240 0
-133 -229 0
-134 -230 0
-135 -231 0
-136 -232 0
-137 -233 0
-138 -234 0
-139 -235 0
-140 -236 0
-141 -237 0
-142 -238 0
-143 -239 0
-144 -240 0
-85 -181 0
-86 -182 0
-87 -183 0
-88 -184 0
-89 -185 0
-90 -186 0
-91 -187 0
-92 -188 0
-93 -189 0
-94 -190 0
-95 -191 0
-96 -192 0
-121 -145 0
-122 -146 0
-123 -147 0
-124 -148 0
-125 -149 0
-126 -150 0
-127 -151 0
-128 -152 0
-129 -153 0
-130 -154 0
-131 -155 0
-132 -156 0
-217 -241 0
-218 -242 0
-219 -243 0
-220 -244 0
-221 -245 0
-222 -246 0
-223 -247 0
-224 -248 0
-225 -249 0
-226 -250 0
-227 -251 0
-228 -252 0
-169 -253 0
-170 -254 0
-171 -255 0
-172 -256 0
-173 -257 0
-174 -258 0
-175 -259 0
-176 -260 0
-177 -261 0
-178 -262 0
-179 -263 0
-180 -264 0
-61 -205 0
-62 -206 0
-63 -207 0
-64 -208 0
-65 -209 0
-66 -210 0
-67 -211 0
-68 -212 0
-69 -213 0
-70 -214 0
-71 -215 0
-72 -216 0
-133 -157 0
-134 -158 0
-135 -159 0
-136 -160 0
-137 -161 0
-138 -162 0
-139 -163 0
-140 -164 0
-141 -165 0
-142 -166 0
-143 -167 0
-144 -168 0
-229 -253 0
-230 -254 0
-231 -255 0
-232 -256 0
-233 -257 0
-234 -258 0
-235 -259 0
-236 -260 0
-237 -261 0
-238 -262 0
-239 -263 0
-240 -264 0
-145 -169 0
-146 -170 0
-147 -171 0
-148 -172 0
-149 -173 0
-150 -174 0
-151 -175 0
-152 -176 0
-153 -177 0
-154 -178 0
-155 -179 0
-156 -180 0
-157 -181 0
-158 -182 0
-159 -183 0
-160 -184 0
-161 -185 0
-162 -186 0
-163 -187 0
-164 -188 0
-165 -189 0
-166 -190 0
-167 -191 0
-168 -192 0
-109 -181 0
-110 -182 0
-111 -183 0
-112 -184 0
-113 -185 0
-114 -186 0
-115 -187 0
-116 -188 0
-117 -189 0
-118 -190 0
-119 -191 0
-120 -192 0
-169 -241 0
-170 -242 0
-171 -243 0
-172 -244 0
-173 -245 0
-174 -246 0
-175 -247 0
-176 -248 0
-177 -249 0
-178 -250 0
-179 -251 0
-180 -252 0
-133 -217 0
-134 -218 0
-135 -219 0
-136 -220 0
-137 -221 0
-138 -222 0
-139 -223 0
-140 -224 0
-141 -225 0
-142 -226 0
-143 -227 0
-144 -228 0
-193 -241 0
-194 -242 0
-195 -243 0
-196 -244 0
-197 -245 0
-198 -246 0
-199 -247 0
-200 -248 0
-201 -249 0
-202 -250 0
-203 -251 0
-204 -252 0
-145 -205 0
-146 -206 0
-147 -207 0
-148 -208 0
-149 -209 0
-150 -210 0
-151 -211 0
-152 -212 0
-153 -213 0
-154 -214 0
-155 -215 0
-156 -216 0
-97 -253 0
-98 -254 0
-99 -255 0
-100 -256 0
-101 -257 0
-102 -258 0
-103 -259 0
-104 -260 0
-105 -261 0
-106 -262 0
-107 -263 0
-108 -264 0
-61 -241 0
-62 -242 0
-63 -243 0
-64 -244 0
-65 -245 0
-66 -246 0
-67 -247 0
-68 -248 0
-69 -249 0
-70 -250 0
-71 -251 0
-72 -252 0
-49 -217 0
-50 -218 0
-51 -219 0
-52 -220 0
-53 -221 0
-54 -222 0
-55 -223 0
-56 -224 0
-57 -225 0
-58 -226 0
-59 -227 0
-60 -228 0
-109 -241 0
-110 -242 0
-111 -243 0
-112 -244 0
-113 -245 0
-114 -246 0
-115 -247 0
-116 -248 0
-117 -249 0
-118 -250 0
-119 -251 0
-120 -252 0
-73 -181 0
-74 -182 0
-75 -183 0
-76 -184 0
-77 -185 0
-78 -186 0
-79 -187 0
-80 -188 0
-81 -189 0
-82 -190 0
-83 -191 0
-84 -192 0
-181 -241 0
-182 -242 0
-183 -243 0
-184 -244 0
-185 -245 0
-186 -246 0
-187 -247 0
-188 -248 0
-189 -249 0
-190 -250 0
-191 -251 0
-192 -252 0
-133 -181 0
-134 -182 0
-135 -183 0
-136 -184 0
-137 -185 0
-138 -186 0
-139 -187 0
-140 -188 0
-141 -189 0
-142 -190 0
-143 -191 0
-144 -192 0
-145 -241 0
-146 -242 0
-147 -243 0
-148 -244 0
-149 -245 0
-150 -246 0
-151 -247 0
-152 -248 0
-153 -249 0
-154 -250 0
-155 -251 0
-156 -252 0
-97 -169 0
-98 -170 0
-99 -171 0
-100 -172 0
-101 -173 0
-102 -174 0
-103 -175 0
-104 -176 0
-105 -177 0
-106 -178 0
-107 -179 0
-108 -180 0
-25 -229 0
-26 -230 0
-27 -231 0
-28 -232 0
-29 -233 0
-30 -234 0
-31 -235 0
-32 -236 0
-33 -237 0
-34 -238 0
-35 -239 0
-36 -240 0
-85 -229 0
-86 -230 0
-87 -231 0
-88 -232 0
-89 -233 0
-90 -234 0
-91 -235 0
-92 -236 0
-93 -237 0
-94 -238 0
-95 -239 0
-96 -240 0
-97 -193 0
-98 -194 0
-99 -195 0
-100 -196 0
-101 -197 0
-102 -198 0
-103 -199 0
-104 -200 0
-105 -201 0
-106 -202 0
-107 -203 0
-108 -204 0
-169 -205 0
-170 -206 0
-171 -207 0
-172 -208 0
-173 -209 0
-174 -210 0
-175 -211 0
-176 -212 0
-177 -213 0
-178 -214 0
-179 -215 0
-180 -216 0
-61 -253 0
-62 -254 0
-63 -255 0
-64 -256 0
-65 -257 0
-66 -258 0
-67 -259 0
-68 -260 0
-69 -261 0
-70 -262 0
-71 -263 0
-72 -264 0
-49 -253 0
-50 -254 0
-51 -255 0
-52 -256 0
-53 -257 0
-54 -258 0
-55 -259 0
-56 -260 0
-57 -261 0
-58 -262 0
-59 -263 0
-60 -264 0
-121 -205 0
-122 -206 0
-123 -207 0
-124 -208 0
-125 -209 0
-126 -210 0
-127 -211 0
-128 -212 0
-129 -213 0
-130 -214 0
-131 -215 0
-132 -216 0
-109 -253 0
-110 -254 0
-111 -255 0
-112 -256 0
-113 -257 0
-114 -258 0
-115 -259 0
-116 -260 0
-117 -261 0
-118 -262 0
-119 -263 0
-120 -264 0
-181 -205 0
-182 -206 0
-183 -207 0
-184 -208 0
-185 -209 0
-186 -210 0
-187 -211 0
-188 -212 0
-189 -213 0
-190 -214 0
-191 -215 0
-192 -216 0
-133 -241 0
-134 -242 0
-135 -243 0
-136 -244 0
-137 -245 0
-138 -246 0
-139 -247 0
-140 -248 0
-141 -249 0
-142 -250 0
-143 -251 0
-144 -252 0
-193 -217 0
-194 -218 0
-195 -219 0
-196 -220 0
-197 -221 0
-198 -222 0
-199 -223 0
-200 -224 0
-201 -225 0
-202 -226 0
-203 -227 0
-204 -228 0
-85 -193 0
-86 -194 0
-87 -195 0
-88 -196 0
-89 -197 0
-90 -198 0
-91 -199 0
-92 -200 0
-93 -201 0
-94 -202 0
-95 -203 0
-96 -204 0
-157 -229 0
-158 -230 0
-159 -231 0
-160 -232 0
-161 -233 0
-162 -234 0
-163 -235 0
-164 -236 0
-165 -237 0
-166 -238 0
-167 -239 0
-168 -240 0
-37 -229 0
-38 -230 0
-39 -231 0
-40 -232 0
-41 -233 0
-42 -234 0
-43 -235 0
-44 -236 0
-45 -237 0
-46 -238 0
-47 -239 0
-48 -240 0
-121 -133 0
-122 -134 0
-123 -135 0
-124 -136 0
-125 -137 0
-126 -138 0
-127 -139 0
-128 -140 0
-129 -141 0
-130 -142 0
-131 -143 0
-132 -144 0
-217 -229 0
-218 -230 0
-219 -231 0
-220 -232 0
-221 -233 0
-222 -234 0
-223 -235 0
-224 -236 0
-225 -237 0
-226 -238 0
-227 -239 0
-228 -240 0
-169 -193 0
-170 -194 0
-171 -195 0
-172 -196 0
-173 -197 0
-174 -198 0
-175 -199 0
-176 -200 0
-177 -201 0
-178 -202 0
-179 -203 0
-180 -204 0
-61 -217 0
-62 -218 0
-63 -219 0
-64 -220 0
-65 -221 0
-66 -222 0
-67 -223 0
-68 -224 0
-69 -225 0
-70 -226 0
-71 -227 0
-72 -228 0
-133 -169 0
-134 -170 0
-135 -171 0
-136 -172 0
-137 -173 0
-138 -174 0
-139 -175 0
-140 -176 0
-141 -177 0
-142 -178 0
-143 -179 0
-144 -180 0
-121 -193 0
-122 -194 0
-123 -195 0
-124 -196 0
-125 -197 0
-126 -198 0
-127 -199 0
-128 -200 0
-129 -201 0
-130 -202 0
-131 -203 0
-132 -204 0
-1 -253 0
-2 -254 0
-3 -255 0
-4 -256 0
-5 -257 0
-6 -258 0
-7 -259 0
-8 -260 0
-9 -261 0
-10 -262 0
-11 -263 0
-12 -264 0
-145 -157 0
-146 -158 0
-147 -159 0
-148 -160 0
-149 -161 0
-150 -162 0
-151 -163 0
-152 -164 0
-153 -165 0
-154 -166 0
-155 -167 0
-156 -168 0
-241 -253 0
-242 -254 0
-243 -255 0
-244 -256 0
-245 -257 0
-246 -258 0
-247 -259 0
-248 -260 0
-249 -261 0
-250 -262 0
-251 -263 0
-252 -264 0
-13 -241 0
-14 -242 0
-15 -243 0
-16 -244 0
-17 -245 0
-18 -246 0
-19 -247 0
-20 -248 0
-21 -249 0
-22 -250 0
-23 -251 0
-24 -252 0
c p weight 21 0.62107919 0
c p weight -21 0.37892081 0
c p weight 51 0.34627642 0
c p weight -51 0.65372358 0
c p weight 48 0.44741559 0
c p weight -48 0.55258441 0
c p weight 262 0.65481205 0
c p weight -262 0.34518795 0
c p weight 138 0.42405244 0
c p weight -138 0.57594756 0
c p weight 114 0.64090682 0
c p weight -114 0.35909318 0
c p weight 237 0.62249805 0
c p weight -237 0.37750195 0
c p weight 74 0.46159459 0
c p weight -74 0.53840541 0
c p weight 150 0.67048187 0
c p weight -150 0.32951813 0
c p weight 25 0.30498812 0
c p weight -25 0.69501188 0
c p weight 104 0.53241744 0
c p weight -104 0.46758256 0
c p weight 1 1 0
c p weight -1 1 0
c p weight 2 1 0
c p weight -2 1 0
c p weight 3 1 0
c p weight -3 1 0
c p weight 4 1 0
c p weight -4 1 0
c p weight 5 1 0
c p weight -5 1 0
c p weight 6 1 0
c p weight -6 1 0
c p weight 7 1 0
c p weight -7 1 0
c p weight 8 1 0
c p weight -8 1 0
c p weight 9 1 0
c p weight -9 1 0
c p weight 10 1 0
c p weight -10 1 0
c p weight 11 1 0
c p weight -11 1 0
c p weight 12 1 0
c p weight -12 1 0
c p weight 13 1 0
c p weight -13 1 0
c p weight 14 1 0
c p weight -14 1 0
c p weight 15 1 0
c p weight -15 1 0
c p weight 16 1 0
c p weight -16 1 0
c p weight 17 1 0
c p weight -17 1 0
c p weight 18 1 0
c p weight -18 1 0
c p weight 19 1 0
c p weight -19 1 0
c p weight 20 1 0
c p weight -20 1 0
c p weight 22 1 0
c p weight -22 1 0
c p weight 23 1 0
c p weight -23 1 0
c p weight 24 1 0
c p weight -24 1 0
c p weight 26 1 0
c p weight -26 1 0
c p weight 27 1 0
c p weight -27 1 0
c p weight 28 1 0
c p weight -28 1 0
c p weight 29 1 0
c p weight -29 1 0
c p weight 30 1 0
c p weight -30 1 0
c p weight 31 1 0
c p weight -31 1 0
c p weight 32 1 0
c p weight -32 1 0
c p weight 33 1 0
c p weight -33 1 0
c p weight 34 1 0
c p weight -34 1 0
c p weight 35 1 0
c p weight -35 1 0
c p weight 36 1 0
c p weight -36 1 0
c p weight 37 1 0
c p weight -37 1 0
c p weight 38 1 0
c p weight -38 1 0
c p weight 39 1 0
c p weight -39 1 0
c p weight 40 1 0
c p weight -40 1 0
c p weight 41 1 0
c p weight -41 1 0
c p weight 42 1 0
c p weight -42 1 0
c p weight 43 1 0
c p weight -43 1 0
c p weight 44 1 0
c p weight -44 1 0
c p weight 45 1 0
c p weight -45 1 0
c p weight 46 1 0
c p weight -46 1 0
c p weight 47 1 0
c p weight -47 1 0
c p weight 49 1 0
c p weight -49 1 0
c p weight 50 1 0
c p weight -50 1 0
c p weight 52 1 0
c p weight -52 1 0
c p weight 53 1 0
c p weight -53 1 0
c p weight 54 1 0
c p weight -54 1 0
c p weight 55 1 0
c p weight -55 1 0
c p weight 56 1 0
c p weight -56 1 0
c p weight 57 1 0
c p weight -57 1 0
c p weight 58 1 0
c p weight -58 1 0
c p weight 59 1 0
c p weight -59 1 0
c p weight 60 1 0
c p weight -60 1 0
c p weight 61 1 0
c p weight -61 1 0
c p weight 62 1 0
c p weight -62 1 0
c p weight 63 1 0
c p weight -63 1 0
c p weight 64 1 0
c p weight -64 1 0
c p weight 65 1 0
c p weight -65 1 0
c p weight 66 1 0
c p weight -66 1 0
c p weight 67 1 0
c p weight -67 1 0
c p weight 68 1 0
c p weight -68 1 0
c p weight 69 1 0
c p weight -69 1 0
c p weight 70 1 0
c p weight -70 1 0
c p weight 71 1 0
c p weight -71 1 0
c p weight 72 1 0
c p weight -72 1 0
c p weight 73 1 0
c p weight -73 1 0
c p weight 75 1 0
c p weight -75 1 0
c p weight 76 1 0
c p weight -76 1 0
c p weight 77 1 0
c p weight -77 1 0
c p weight 78 1 0
c p weight -78 1 0
c p weight 79 1 0
c p weight -79 1 0
c p weight 80 1 0
c p weight -80 1 0
c p weight 81 1 0
c p weight -81 1 0
c p weight 82 1 0
c p weight -82 1 0
c p weight 83 1 0
c p weight -83 1 0
c p weight 84 1 0
c p weight -84 1 0
c p weight 85 1 0
c p weight -85 1 0
c p weight 86 1 0
c p weight -86 1 0
c p weight 87 1 0
c p weight -87 1 0
c p weight 88 1 0
c p weight -88 1 0
c p weight 89 1 0
c p weight -89 1 0
c p weight 90 1 0
c p weight -90 1 0
c p weight 91 1 0
c p weight -91 1 0
c p weight 92 1 0
c p weight -92 1 0
c p weight 93 1 0
c p weight -93 1 0
c p weight 94 1 0
c p weight -94 1 0
c p weight 95 1 0
c p weight -95 1 0
c p weight 96 1 0
c p weight -96 1 0
c p weight 97 1 0
c p weight -97 1 0
c p weight 98 1 0
c p weight -98 1 0
c p weight 99 1 0
c p weight -99 1 0
c p weight 100 1 0
c p weight -100 1 0
c p weight 101 1 0
c p weight -101 1 0
c p weight 102 1 0
c p weight -102 1 0
c p weight 103 1 0
c p weight -103 1 0
c p weight 105 1 0
c p weight -105 1 0
c p weight 106 1 0
c p weight -106 1 0
c p weight 107 1 0
c p weight -107 1 0
c p weight 108 1 0
c p weight -108 1 0
c p weight 109 1 0
c p weight -109 1 0
c p weight 110 1 0
c p weight -110 1 0
c p weight 111 1 0
c p weight -111 1 0
c p weight 112 1 0
c p weight -112 1 0
c p weight 113 1 0
c p weight -113 1 0
c p weight 115 1 0
c p weight -115 1 0
c p weight 116 1 0
c p weight -116 1 0
c p weight 117 1 0
c p weight -117 1 0
c p weight 118 1 0
c p weight -118 1 0
c p weight 119 1 0
c p weight -119 1 0
c p weight 120 1 0
c p weight -120 1 0
c p weight 121 1 0
c p weight -121 1 0
c p weight 122 1 0
c p weight -122 1 0
c p weight 123 1 0
c p weight -123 1 0
c p weight 124 1 0
c p weight -124 1 0
c p weight 125 1 0
c p weight -125 1 0
c p weight 126 1 0
c p weight -126 1 0
c p weight 127 1 0
c p weight -127 1 0
c p weight 128 1 0
c p weight -128 1 0
c p weight 129 1 0
c p weight -129 1 0
c p weight 130 1 0
c p weight -130 1 0
c p weight 131 1 0
c p weight -131 1 0
c p weight 132 1 0
c p weight -132 1 0
c p weight 133 1 0
c p weight -133 1 0
c p weight 134 1 0
c p weight -134 1 0
c p weight 135 1 0
c p weight -135 1 0
c p weight 136 1 0
c p weight -136 1 0
c p weight 137 1 0
c p weight -137 1 0
c p weight 139 1 0
c p weight -139 1 0
c p weight 140 1 0
c p weight -140 1 0
c p weight 141 1 0
c p weight -141 1 0
c p weight 142 1 0
c p weight -142 1 0
c p weight 143 1 0
c p weight -143 1 0
c p weight 144 1 0
c p weight -144 1 0
c p weight 145 1 0
c p weight -145 1 0
c p weight 146 1 0
c p weight -146 1 0
c p weight 147 1 0
c p weight -147 1 0
c p weight 148 1 0
c p weight -148 1 0
c p weight 149 1 0
c p weight -149 1 0
c p weight 151 1 0
c p weight -151 1 0
c p weight 152 1 0
c p weight -152 1 0
c p weight 153 1 0
c p weight -153 1 0
c p weight 154 1 0
c p weight -154 1 0
c p weight 155 1 0
c p weight -155 1 0
c p weight 156 1 0
c p weight -156 1 0
c p weight 157 1 0
c p weight -157 1 0
c p weight 158 1 0
c p weight -158 1 0
c p weight 159 1 0
c p weight -159 1 0
c p weight 160 1 0
c p weight -160 1 0
c p weight 161 1 0
c p weight -161 1 0
c p weight 162 1 0
c p weight -162 1 0
c p weight 163 1 0
c p weight -163 1 0
c p weight 164 1 0
c p weight -164 1 0
c p weight 165 1 0
c p weight -165 1 0
c p weight 166 1 0
c p weight -166 1 0
c p weight 167 1 0
c p weight -167 1 0
c p weight 168 1 0
c p weight -168 1 0
c p weight 169 1 0
c p weight -169 1 0
c p weight 170 1 0
c p weight -170 1 0
c p weight 171 1 0
c p weight -171 1 0
c p weight 172 1 0
c p weight -172 1 0
c p weight 173 1 0
c p weight -173 1 0
c p weight 174 1 0
c p weight -174 1 0
c p weight 175 1 0
c p weight -175 1 0
c p weight 176 1 0
c p weight -176 1 0
c p weight 177 1 0
c p weight -177 1 0
c p weight 178 1 0
c p weight -178 1 0
c p weight 179 1 0
c p weight -179 1 0
c p weight 180 1 0
c p weight -180 1 0
c p weight 181 1 0
c p weight -181 1 0
c p weight 182 1 0
c p weight -182 1 0
c p weight 183 1 0
c p weight -183 1 0
c p weight 184 1 0
c p weight -184 1 0
c p weight 185 1 0
c p weight -185 1 0
c p weight 186 1 0
c p weight -186 1 0
c p weight 187 1 0
c p weight -187 1 0
c p weight 188 1 0
c p weight -188 1 0
c p weight 189 1 0
c p weight -189 1 0
c p weight 190 1 0
c p weight -190 1 0
c p weight 191 1 0
c p weight -191 1 0
c p weight 192 1 0
c p weight -192 1 0
c p weight 193 1 0
c p weight -193 1 0
c p weight 194 1 0
c p weight -194 1 0
c p weight 195 1 0
c p weight -195 1 0
c p weight 196 1 0
c p weight -196 1 0
c p weight 197 1 0
c p weight -197 1 0
c p weight 198 1 0
c p weight -198 1 0
c p weight 199 1 0
c p weight -199 1 0
c p weight 200 1 0
c p weight -200 1 0
c p weight 201 1 0
c p weight -201 1 0
c p weight 202 1 0
c p weight -202 1 0
c p weight 203 1 0
c p weight -203 1 0
c p weight 204 1 0
c p weight -204 1 0
c p weight 205 1 0
c p weight -205 1 0
c p weight 206 1 0
c p weight -206 1 0
c p weight 207 1 0
c p weight -207 1 0
c p weight 208 1 0
c p weight -208 1 0
c p weight 209 1 0
c p weight -209 1 0
c p weight 210 1 0
c p weight -210 1 0
c p weight 211 1 0
c p weight -211 1 0
c p weight 212 1 0
c p weight -212 1 0
c p weight 213 1 0
c p weight -213 1 0
c p weight 214 1 0
c p weight -214 1 0
c p weight 215 1 0
c p weight -215 1 0
c p weight 216 1 0
c p weight -216 1 0
c p weight 217 1 0
c p weight -217 1 0
c p weight 218 1 0
c p weight -218 1 0
c p weight 219 1 0
c p weight -219 1 0
c p weight 220 1 0
c p weight -220 1 0
c p weight 221 1 0
c p weight -221 1 0
c p weight 222 1 0
c p weight -222 1 0
c p weight 223 1 0
c p weight -223 1 0
c p weight 224 1 0
c p weight -224 1 0
c p weight 225 1 0
c p weight -225 1 0
c p weight 226 1 0
c p weight -226 1 0
c p weight 227 1 0
c p weight -227 1 0
c p weight 228 1 0
c p weight -228 1 0
c p weight 229 1 0
c p weight -229 1 0
c p weight 230 1 0
c p weight -230 1 0
c p weight 231 1 0
c p weight -231 1 0
c p weight 232 1 0
c p weight -232 1 0
c p weight 233 1 0
c p weight -233 1 0
c p weight 234 1 0
c p weight -234 1 0
c p weight 235 1 0
c p weight -235 1 0
c p weight 236 1 0
c p weight -236 1 0
c p weight 238 1 0
c p weight -238 1 0
c p weight 239 1 0
c p weight -239 1 0
c p weight 240 1 0
c p weight -240 1 0
c p weight 241 1 0
c p weight -241 1 0
c p weight 242 1 0
c p weight -242 1 0
c p weight 243 1 0
c p weight -243 1 0
c p weight 244 1 0
c p weight -244 1 0
c p weight 245 1 0
c p weight -245 1 0
c p weight 246 1 0
c p weight -246 1 0
c p weight 247 1 0
c p weight -247 1 0
c p weight 248 1 0
c p weight -248 1 0
c p weight 249 1 0
c p weight -249 1 0
c p weight 250 1 0
c p weight -250 1 0
c p weight 251 1 0
c p weight -251 1 0
c p weight 252 1 0
c p weight -252 1 0
c p weight 253 1 0
c p weight -253 1 0
c p weight 254 1 0
c p weight -254 1 0
c p weight 255 1 0
c p weight -255 1 0
c p weight 256 1 0
c p weight -256 1 0
c p weight 257 1 0
c p weight -257 1 0
c p weight 258 1 0
c p weight -258 1 0
c p weight 259 1 0
c p weight -259 1 0
c p weight 260 1 0
c p weight -260 1 0
c p weight 261 1 0
c p weight -261 1 0
c p weight 263 1 0
c p weight -263 1 0
c p weight 264 1 0
c p weight -264 1 0
